
Log started (V11.0.0) Sun Apr 13 13:19:01 2008

Tried aggregator 1 time.
Reduced MIP has 210 rows, 2001 columns, and 4010 nonzeros.
Presolve time =    0.02 sec.
Clique table members: 200.
MIP emphasis: balance optimality and feasibility.
MIP search method: dynamic search.
Parallel mode: none, using 1 thread.
Root relaxation solution time =    0.05 sec.

        Nodes                                         Cuts/
   Node  Left     Objective  IInf  Best Integer     Best Node    ItCnt     Gap

*     0+    0                         9605.0000      193.6070      311   97.98%
*     0+    0                          206.0000      193.6070      311    6.02%
      0     0      194.0000    20      206.0000     Fract: 10      319    5.83%
*     0+    0                          203.0000      194.0000      319    4.43%
      0     0      194.0000    25      203.0000     Covers: 2      333    4.43%
*     0+    0                          200.0000      194.0000      333    3.00%
      0     0      194.0000    24      200.0000     Covers: 1      346    3.00%
*     0+    0                          197.0000      194.0000      346    1.52%

Repeating presolve.
Tried aggregator 1 time.
MIP Presolve eliminated 11 rows and 1298 columns.
Aggregator did 36 substitutions.
Reduced MIP has 163 rows, 667 columns, and 1342 nonzeros.
Tried aggregator 1 time.
Represolve time =    0.02 sec.
Clique table members: 153.
MIP emphasis: balance optimality and feasibility.
MIP search method: dynamic search.
Parallel mode: none, using 1 thread.
Root relaxation solution time =    0.00 sec.

        Nodes                                         Cuts/
   Node  Left     Objective  IInf  Best Integer     Best Node    ItCnt     Gap

      0     0      194.0000    17      197.0000      194.0000      153    1.52%
      0     2      194.0000    17      197.0000      194.0000      153    1.52%
    100    80      196.0000    21      197.0000      194.0000     2100    1.52%
    200   140      195.0000    35      197.0000      194.0000     4449    1.52%
    300   225      196.0000    31      197.0000      194.0265     7310    1.51%
    400   305      196.0000    39      197.0000      195.0000    10923    1.02%
    500   372      196.0000    17      197.0000      195.0000    15245    1.02%
    600   344    infeasible            197.0000      195.0000    19272    1.02%
    700   313      196.0000    21      197.0000      195.0000    23080    1.02%
    800   316      196.0000    19      197.0000      195.0000    26673    1.02%
    900   313      195.0000    36      197.0000      195.0000    29816    1.02%
   1000   330      196.0000    26      197.0000      195.0000    33589    1.02%
Elapsed time =   6.42 sec. (tree size =  0.13 MB, solutions = 5)
*  1097   175      integral     0      196.0000      195.0000    37973    0.51%
   1100   178      195.0000    46      196.0000      195.0000    38422    0.51%
   1200   260      195.0000    47      196.0000      195.0000    42919    0.51%
   1300   300    infeasible            196.0000      195.0000    51541    0.51%
   1400   340    infeasible            196.0000      195.0000    62775    0.51%
*  1405     0      integral     0      195.0000      195.0000    63480    0.00%

Cover cuts applied:  310
Mixed integer rounding cuts applied:  12
Zero-half cuts applied:  2
Gomory fractional cuts applied:  4

Solution pool: 7 solutions saved.

MIP - Integer optimal solution:  Objective = 1.9500000000e+002
Solution time =    9.72 sec.  Iterations = 63480  Nodes = 1406


Incumbent solution
Variable Name           Solution Value
Cmax                        195.000000
X_1_4                         1.000000
X_2_4                         1.000000
X_3_9                         1.000000
X_4_9                         1.000000
X_5_8                         1.000000
X_6_3                         1.000000
X_7_2                         1.000000
X_8_2                         1.000000
X_9_8                         1.000000
X_10_6                        1.000000
X_11_5                        1.000000
X_12_4                        1.000000
X_13_2                        1.000000
X_14_2                        1.000000
X_15_7                        1.000000
X_16_8                        1.000000
X_17_6                        1.000000
X_18_6                        1.000000
X_19_3                        1.000000
X_20_4                        1.000000
X_21_4                        1.000000
X_22_3                        1.000000
X_23_8                        1.000000
X_24_1                        1.000000
X_25_1                        1.000000
X_26_7                        1.000000
X_27_6                        1.000000
X_28_5                        1.000000
X_29_8                        1.000000
X_30_1                        1.000000
X_31_5                        1.000000
X_32_9                        1.000000
X_33_5                        1.000000
X_34_1                        1.000000
X_35_1                        1.000000
X_36_4                        1.000000
X_37_1                        1.000000
X_38_7                        1.000000
X_39_3                        1.000000
X_40_7                        1.000000
X_41_4                        1.000000
X_42_2                        1.000000
X_43_1                        1.000000
X_44_9                        1.000000
X_45_3                        1.000000
X_46_8                        1.000000
X_47_10                       1.000000
X_48_9                        1.000000
X_49_10                       1.000000
X_50_5                        1.000000
X_51_9                        1.000000
X_52_7                        1.000000
X_53_8                        1.000000
X_54_7                        1.000000
X_55_8                        1.000000
X_56_4                        1.000000
X_57_4                        1.000000
X_58_3                        1.000000
X_59_7                        1.000000
X_60_8                        1.000000
X_61_7                        1.000000
X_62_1                        1.000000
X_63_7                        1.000000
X_64_1                        1.000000
X_65_3                        1.000000
X_66_2                        1.000000
X_67_3                        1.000000
X_68_2                        1.000000
X_69_7                        1.000000
X_70_7                        1.000000
X_71_6                        1.000000
X_72_2                        1.000000
X_73_10                       1.000000
X_74_4                        1.000000
X_75_6                        1.000000
X_76_6                        1.000000
X_77_6                        1.000000
X_78_9                        1.000000
X_79_1                        1.000000
X_80_8                        1.000000
X_81_2                        1.000000
X_82_9                        1.000000
X_83_4                        1.000000
X_84_5                        1.000000
X_85_1                        1.000000
X_86_6                        1.000000
X_87_3                        1.000000
X_88_5                        1.000000
X_89_10                       1.000000
X_90_7                        1.000000
X_91_4                        1.000000
X_92_5                        1.000000
X_93_2                        1.000000
X_94_10                       1.000000
X_95_3                        1.000000
X_96_3                        1.000000
X_97_10                       1.000000
X_98_6                        1.000000
X_99_8                        1.000000
X_100_5                       1.000000
X_101_8                       1.000000
X_102_6                       1.000000
X_103_8                       1.000000
X_104_3                       1.000000
X_105_5                       1.000000
X_106_5                       1.000000
X_107_3                       1.000000
X_108_10                      1.000000
X_109_1                       1.000000
X_110_10                      1.000000
X_111_7                       1.000000
X_112_5                       1.000000
X_113_4                       1.000000
X_114_7                       1.000000
X_115_1                       1.000000
X_116_2                       1.000000
X_117_5                       1.000000
X_118_9                       1.000000
X_119_9                       1.000000
X_120_9                       1.000000
X_121_6                       1.000000
X_122_4                       1.000000
X_123_10                      1.000000
X_124_3                       1.000000
X_125_9                       1.000000
X_126_2                       1.000000
X_127_10                      1.000000
X_128_6                       1.000000
X_129_2                       1.000000
X_130_7                       1.000000
X_131_4                       1.000000
X_132_8                       1.000000
X_133_9                       1.000000
X_134_6                       1.000000
X_135_9                       1.000000
X_136_8                       1.000000
X_137_3                       1.000000
X_138_7                       1.000000
X_139_7                       1.000000
X_140_2                       1.000000
X_141_6                       1.000000
X_142_8                       1.000000
X_143_10                      1.000000
X_144_5                       1.000000
X_145_6                       1.000000
X_146_8                       1.000000
X_147_9                       1.000000
X_148_9                       1.000000
X_149_2                       1.000000
X_150_2                       1.000000
X_151_9                       1.000000
X_152_7                       1.000000
X_153_7                       1.000000
X_154_3                       1.000000
X_155_5                       1.000000
X_156_9                       1.000000
X_157_6                       1.000000
X_158_10                      1.000000
X_159_3                       1.000000
X_160_6                       1.000000
X_161_1                       1.000000
X_162_1                       1.000000
X_163_5                       1.000000
X_164_6                       1.000000
X_165_7                       1.000000
X_166_5                       1.000000
X_167_9                       1.000000
X_168_1                       1.000000
X_169_1                       1.000000
X_170_8                       1.000000
X_171_2                       1.000000
X_172_6                       1.000000
X_173_10                      1.000000
X_174_10                      1.000000
X_175_5                       1.000000
X_176_6                       1.000000
X_177_9                       1.000000
X_178_7                       1.000000
X_179_4                       1.000000
X_180_1                       1.000000
X_181_2                       1.000000
X_182_4                       1.000000
X_183_9                       1.000000
X_184_6                       1.000000
X_185_8                       1.000000
X_186_4                       1.000000
X_187_1                       1.000000
X_188_8                       1.000000
X_189_3                       1.000000
X_190_1                       1.000000
X_191_10                      1.000000
X_192_5                       1.000000
X_193_7                       1.000000
X_194_3                       1.000000
X_195_9                       1.000000
X_196_3                       1.000000
X_197_10                      1.000000
X_198_10                      1.000000
X_199_2                       1.000000
X_200_7                       1.000000
All other variables in the range 1-2001 are 0.
